32	0

0	3	2	3	4
10	7	9	14	15	16	17	18	19
2	3	5	6	7
5	1	8
2	3	8	10	13
7	4	9	11	12	15
3	1	8
2	4	9	11	12	15
7	5	20	21	22	23	25
9	6	14	16	17	18	19	20
10	5	21	22	23	24	25
4	6	14	16	17	18	19	20
9	6	14	16	17	18	19	20
7	3	22	24	25
10	3	22	24	25
6	5	21	22	23	24	25
6	5	21	22	23	24	25
5	5	21	22	23	24	25
6	5	21	22	23	24	25
5	4	24	26	27	28
9	3	26	27	28
5	3	26	27	28
9	3	26	27	28
10	2	29	30
5	3	26	27	28
8	1	32
2	2	29	30
4	2	29	30
4	1	32
1	1	31
3	1	32
0	0
